c preprocessed version of 1c9o_graph, 66 vertices, 720 edges
p td 66 720
64 65
63 65
63 64
62 65
62 64
62 63
61 63
61 62
60 63
60 62
60 61
59 64
59 63
59 62
59 61
59 60
58 62
58 61
58 60
58 59
57 62
57 60
57 59
57 58
56 58
56 57
55 60
55 59
55 58
55 57
55 56
54 58
54 56
54 55
53 60
53 59
53 58
53 57
53 56
53 55
53 54
52 60
52 58
52 57
52 56
52 55
52 54
52 53
51 62
51 61
51 60
51 59
51 58
51 57
51 55
51 53
51 52
50 62
50 60
50 59
50 58
50 57
50 56
50 53
50 52
50 51
49 63
49 62
49 61
49 60
49 59
49 58
49 57
49 53
49 51
49 50
48 65
48 63
48 62
48 61
48 60
48 59
48 58
48 57
48 51
48 50
48 49
47 65
47 64
47 63
47 62
47 61
47 60
47 59
47 49
47 48
46 65
46 64
46 63
46 62
46 61
46 60
46 59
46 50
46 49
46 48
46 47
45 65
45 64
45 63
45 62
45 48
45 47
45 46
44 65
44 64
44 63
44 62
44 59
44 48
44 46
44 45
43 45
43 44
42 44
42 43
41 64
41 62
41 46
41 45
41 44
41 43
41 42
40 65
40 64
40 63
40 62
40 59
40 48
40 46
40 45
40 44
40 43
40 42
40 41
39 64
39 62
39 46
39 44
39 41
39 40
38 64
38 62
38 40
38 39
37 64
37 41
37 40
37 39
37 38
36 64
36 44
36 41
36 39
36 38
36 37
35 64
35 63
35 38
35 37
35 36
34 64
34 63
34 62
34 47
34 46
34 40
34 38
34 36
34 35
33 65
33 64
33 63
33 62
33 61
33 60
33 59
33 49
33 47
33 46
33 40
33 38
33 35
33 34
32 65
32 64
32 63
32 62
32 59
32 58
32 48
32 47
32 46
32 44
32 41
32 40
32 39
32 38
32 37
32 36
32 35
32 34
32 33
31 64
31 62
31 61
31 60
31 59
31 58
31 55
31 53
31 51
31 50
31 49
31 48
31 46
31 40
31 38
31 33
31 32
30 62
30 60
30 59
30 58
30 55
30 54
30 53
30 51
30 38
30 33
30 32
30 31
29 64
29 62
29 59
29 58
29 40
29 39
29 38
29 37
29 32
29 31
29 30
28 62
28 60
28 59
28 58
28 55
28 54
28 53
28 51
28 40
28 38
28 32
28 31
28 30
28 29
27 64
27 63
27 62
27 61
27 60
27 59
27 58
27 57
27 51
27 50
27 49
27 48
27 47
27 46
27 44
27 41
27 40
27 39
27 38
27 33
27 32
27 31
27 30
27 29
27 28
26 62
26 60
26 59
26 58
26 57
26 56
26 55
26 54
26 53
26 51
26 50
26 48
26 40
26 32
26 31
26 30
26 28
26 27
25 62
25 60
25 59
25 58
25 57
25 56
25 53
25 52
25 51
25 50
25 49
25 48
25 47
25 46
25 40
25 32
25 31
25 27
25 26
24 59
24 58
24 57
24 50
24 48
24 27
24 26
24 25
23 59
23 57
23 56
23 52
23 50
23 26
23 25
23 24
22 59
22 57
22 50
22 48
22 46
22 27
22 25
22 24
22 23
21 23
21 22
20 45
20 25
20 22
20 21
19 62
19 59
19 57
19 50
19 48
19 47
19 46
19 40
19 31
19 27
19 26
19 25
19 24
19 23
19 22
19 21
19 20
18 59
18 48
18 46
18 43
18 42
18 40
18 27
18 25
18 24
18 23
18 22
18 21
18 20
18 19
17 64
17 63
17 62
17 61
17 60
17 59
17 58
17 57
17 50
17 49
17 48
17 47
17 46
17 45
17 44
17 40
17 32
17 31
17 28
17 27
17 26
17 25
17 24
17 22
17 19
17 18
16 62
16 59
16 58
16 55
16 50
16 48
16 46
16 42
16 40
16 28
16 27
16 26
16 25
16 24
16 23
16 19
16 18
16 17
15 64
15 62
15 59
15 48
15 46
15 44
15 41
15 40
15 39
15 32
15 31
15 29
15 28
15 27
15 26
15 25
15 24
15 18
15 17
15 16
14 62
14 59
14 58
14 55
14 53
14 40
14 32
14 31
14 30
14 29
14 28
14 27
14 26
14 24
14 16
14 15
13 39
13 38
13 37
13 32
13 30
13 29
13 28
13 27
13 15
13 14
12 58
12 30
12 29
12 28
12 26
12 16
12 15
12 14
12 13
11 39
11 37
11 29
11 14
11 13
11 12
10 44
10 42
10 41
10 40
10 39
10 38
10 37
10 36
10 32
10 29
10 27
10 15
10 13
10 12
10 11
9 42
9 40
9 39
9 26
9 16
9 15
9 14
9 13
9 12
9 11
9 10
8 64
8 62
8 59
8 48
8 46
8 44
8 42
8 41
8 40
8 39
8 38
8 37
8 32
8 31
8 29
8 28
8 27
8 26
8 17
8 16
8 15
8 14
8 13
8 12
8 11
8 10
8 9
7 42
7 41
7 40
7 26
7 24
7 18
7 17
7 16
7 15
7 14
7 12
7 10
7 9
7 8
6 59
6 48
6 46
6 43
6 42
6 40
6 27
6 26
6 25
6 24
6 23
6 22
6 20
6 19
6 18
6 17
6 16
6 15
6 9
6 8
6 7
5 65
5 64
5 63
5 62
5 59
5 48
5 47
5 46
5 45
5 44
5 43
5 42
5 41
5 40
5 39
5 32
5 31
5 29
5 28
5 27
5 26
5 25
5 24
5 19
5 18
5 17
5 16
5 15
5 14
5 10
5 8
5 7
5 6
4 65
4 62
4 59
4 48
4 46
4 45
4 44
4 43
4 42
4 40
4 27
4 25
4 24
4 20
4 19
4 18
4 17
4 16
4 8
4 7
4 6
4 5
3 65
3 63
3 62
3 59
3 57
3 50
3 49
3 48
3 47
3 46
3 45
3 44
3 40
3 32
3 31
3 27
3 25
3 22
3 20
3 19
3 18
3 17
3 15
3 8
3 5
3 4
2 65
2 63
2 62
2 59
2 50
2 48
2 47
2 46
2 45
2 44
2 25
2 22
2 20
2 19
2 17
2 4
2 3
1 65
1 62
1 59
1 57
1 51
1 50
1 49
1 48
1 47
1 46
1 45
1 27
1 25
1 23
1 22
1 21
1 20
1 19
1 17
1 3
1 2
0 65
0 63
0 62
0 61
0 60
0 59
0 51
0 50
0 49
0 48
0 47
0 46
0 45
0 33
0 17
0 2
0 1
